NAME : sim81.95175.tour
COMMENT : Length = 95175
COMMENT : Found by LKH [Keld Helsgaun] Fri Sep 14 20:50:16 2018
TYPE : TOUR
DIMENSION : 81
TOUR_SECTION
1
11
74
67
34
9
69
62
60
28
16
18
10
17
25
42
7
76
40
63
64
68
3
48
43
61
35
19
47
58
12
23
65
22
8
79
14
29
41
31
80
27
51
45
6
5
81
70
52
33
72
75
77
30
73
21
13
24
39
78
66
59
57
56
15
46
50
37
49
36
4
38
20
32
54
53
55
2
26
44
71
-1
EOF
